c " random instance " 
p edges 200 2206
e 1 3
e 1 28
e 1 30
e 1 59
e 1 61
e 1 68
e 1 81
e 1 105
e 1 135
e 1 141
e 1 147
e 1 155
e 1 160
e 1 166
e 1 177
e 1 199
e 2 19
e 2 22
e 2 41
e 2 56
e 2 60
e 2 63
e 2 65
e 2 76
e 2 82
e 2 84
e 2 86
e 2 103
e 2 106
e 2 110
e 2 115
e 2 124
e 2 137
e 2 153
e 2 160
e 2 162
e 2 173
e 2 179
e 2 190
e 2 191
e 2 195
e 3 7
e 3 12
e 3 26
e 3 44
e 3 50
e 3 52
e 3 58
e 3 61
e 3 84
e 3 90
e 3 96
e 3 101
e 3 108
e 3 109
e 3 121
e 3 130
e 3 147
e 3 151
e 3 152
e 3 160
e 3 173
e 3 175
e 3 177
e 3 182
e 4 5
e 4 6
e 4 7
e 4 23
e 4 26
e 4 28
e 4 30
e 4 52
e 4 53
e 4 64
e 4 72
e 4 77
e 4 91
e 4 93
e 4 124
e 4 125
e 4 128
e 4 137
e 4 151
e 4 164
e 4 167
e 4 176
e 4 177
e 4 182
e 4 190
e 4 193
e 4 197
e 5 6
e 5 13
e 5 53
e 5 76
e 5 101
e 5 102
e 5 109
e 5 116
e 5 117
e 5 137
e 5 149
e 5 165
e 5 171
e 5 186
e 5 189
e 5 192
e 5 196
e 6 18
e 6 22
e 6 29
e 6 31
e 6 35
e 6 41
e 6 55
e 6 60
e 6 107
e 6 112
e 6 118
e 6 126
e 6 128
e 6 131
e 6 132
e 6 143
e 6 149
e 6 158
e 6 159
e 6 180
e 6 184
e 6 191
e 7 13
e 7 19
e 7 30
e 7 59
e 7 61
e 7 66
e 7 69
e 7 70
e 7 81
e 7 94
e 7 112
e 7 119
e 7 122
e 7 131
e 7 135
e 7 147
e 7 154
e 7 163
e 7 177
e 7 183
e 7 186
e 7 188
e 8 15
e 8 52
e 8 77
e 8 81
e 8 87
e 8 109
e 8 122
e 8 125
e 8 141
e 8 143
e 8 144
e 8 153
e 8 157
e 8 175
e 8 178
e 8 180
e 8 182
e 8 190
e 9 17
e 9 24
e 9 25
e 9 40
e 9 48
e 9 52
e 9 53
e 9 55
e 9 57
e 9 60
e 9 62
e 9 65
e 9 66
e 9 71
e 9 74
e 9 84
e 9 99
e 9 110
e 9 115
e 9 116
e 9 127
e 9 140
e 9 144
e 9 148
e 9 166
e 9 168
e 9 177
e 10 19
e 10 21
e 10 63
e 10 64
e 10 71
e 10 84
e 10 97
e 10 101
e 10 127
e 10 131
e 10 133
e 10 141
e 10 146
e 10 151
e 10 163
e 10 164
e 10 174
e 10 175
e 10 198
e 10 199
e 10 200
e 11 34
e 11 42
e 11 51
e 11 61
e 11 82
e 11 84
e 11 89
e 11 94
e 11 100
e 11 117
e 11 131
e 11 132
e 11 145
e 11 166
e 11 184
e 12 17
e 12 24
e 12 29
e 12 39
e 12 80
e 12 103
e 12 116
e 12 123
e 12 127
e 12 136
e 12 162
e 12 165
e 12 168
e 12 181
e 12 189
e 13 17
e 13 25
e 13 29
e 13 37
e 13 50
e 13 55
e 13 57
e 13 85
e 13 96
e 13 121
e 13 122
e 13 124
e 13 128
e 13 138
e 13 140
e 13 141
e 13 157
e 13 170
e 13 194
e 14 24
e 14 26
e 14 39
e 14 43
e 14 45
e 14 86
e 14 96
e 14 104
e 14 108
e 14 109
e 14 117
e 14 123
e 14 133
e 14 141
e 14 155
e 14 157
e 14 159
e 14 161
e 14 164
e 14 186
e 14 190
e 15 23
e 15 30
e 15 39
e 15 49
e 15 70
e 15 72
e 15 79
e 15 84
e 15 91
e 15 94
e 15 96
e 15 98
e 15 110
e 15 114
e 15 120
e 15 129
e 15 140
e 15 145
e 15 146
e 15 149
e 15 167
e 15 179
e 16 33
e 16 35
e 16 45
e 16 50
e 16 54
e 16 65
e 16 71
e 16 81
e 16 88
e 16 128
e 16 134
e 16 159
e 16 168
e 16 177
e 16 188
e 16 189
e 16 190
e 17 18
e 17 45
e 17 56
e 17 68
e 17 70
e 17 77
e 17 94
e 17 102
e 17 103
e 17 108
e 17 116
e 17 131
e 17 135
e 17 146
e 17 148
e 17 151
e 17 157
e 17 180
e 17 186
e 17 198
e 18 23
e 18 38
e 18 46
e 18 55
e 18 79
e 18 81
e 18 82
e 18 100
e 18 104
e 18 118
e 18 126
e 18 136
e 18 167
e 18 170
e 19 26
e 19 31
e 19 32
e 19 64
e 19 75
e 19 77
e 19 88
e 19 91
e 19 96
e 19 101
e 19 106
e 19 112
e 19 115
e 19 117
e 19 123
e 19 135
e 19 137
e 19 138
e 19 150
e 19 156
e 19 157
e 19 160
e 19 161
e 19 178
e 19 186
e 19 187
e 20 36
e 20 45
e 20 57
e 20 61
e 20 63
e 20 94
e 20 95
e 20 98
e 20 102
e 20 106
e 20 110
e 20 121
e 20 139
e 20 155
e 20 169
e 20 181
e 20 186
e 21 26
e 21 48
e 21 59
e 21 62
e 21 90
e 21 96
e 21 103
e 21 109
e 21 137
e 21 139
e 21 145
e 21 146
e 21 163
e 21 164
e 21 174
e 21 176
e 21 193
e 22 26
e 22 37
e 22 39
e 22 49
e 22 58
e 22 61
e 22 80
e 22 112
e 22 118
e 22 136
e 22 137
e 22 148
e 22 159
e 22 179
e 22 183
e 22 188
e 22 190
e 23 27
e 23 39
e 23 45
e 23 70
e 23 71
e 23 73
e 23 79
e 23 110
e 23 120
e 23 124
e 23 126
e 23 131
e 23 135
e 23 143
e 23 151
e 23 160
e 23 173
e 23 183
e 23 195
e 23 196
e 24 41
e 24 44
e 24 46
e 24 47
e 24 51
e 24 58
e 24 69
e 24 102
e 24 103
e 24 119
e 24 136
e 24 146
e 24 152
e 24 157
e 24 164
e 24 174
e 24 179
e 24 187
e 24 198
e 24 199
e 25 35
e 25 42
e 25 46
e 25 52
e 25 62
e 25 67
e 25 70
e 25 78
e 25 79
e 25 87
e 25 90
e 25 92
e 25 93
e 25 109
e 25 117
e 25 135
e 25 142
e 25 144
e 25 153
e 25 159
e 25 170
e 25 174
e 25 187
e 25 188
e 25 189
e 26 39
e 26 51
e 26 66
e 26 87
e 26 93
e 26 108
e 26 113
e 26 116
e 26 127
e 26 138
e 26 150
e 26 153
e 26 156
e 26 165
e 26 178
e 26 182
e 26 185
e 26 196
e 27 30
e 27 33
e 27 36
e 27 38
e 27 40
e 27 59
e 27 61
e 27 63
e 27 70
e 27 76
e 27 79
e 27 83
e 27 84
e 27 117
e 27 142
e 27 149
e 27 154
e 27 176
e 27 180
e 27 182
e 27 184
e 27 185
e 27 190
e 28 32
e 28 42
e 28 46
e 28 60
e 28 71
e 28 73
e 28 78
e 28 112
e 28 116
e 28 123
e 28 129
e 28 138
e 28 148
e 28 163
e 28 183
e 29 30
e 29 56
e 29 59
e 29 65
e 29 99
e 29 131
e 29 132
e 29 135
e 29 139
e 29 144
e 29 156
e 29 159
e 29 162
e 29 182
e 29 186
e 29 189
e 29 199
e 30 56
e 30 62
e 30 69
e 30 74
e 30 75
e 30 90
e 30 102
e 30 107
e 30 108
e 30 111
e 30 124
e 30 130
e 30 132
e 30 144
e 30 150
e 30 161
e 30 177
e 30 191
e 30 197
e 31 43
e 31 52
e 31 59
e 31 68
e 31 84
e 31 88
e 31 111
e 31 116
e 31 128
e 31 139
e 31 142
e 31 152
e 31 158
e 31 166
e 31 173
e 31 177
e 31 188
e 31 196
e 32 60
e 32 71
e 32 77
e 32 80
e 32 88
e 32 92
e 32 100
e 32 101
e 32 112
e 32 115
e 32 117
e 32 120
e 32 124
e 32 126
e 32 141
e 32 154
e 32 175
e 32 176
e 32 179
e 33 34
e 33 66
e 33 67
e 33 73
e 33 79
e 33 99
e 33 110
e 33 124
e 33 137
e 33 144
e 33 154
e 33 156
e 33 161
e 33 169
e 33 185
e 33 186
e 33 190
e 33 195
e 34 42
e 34 43
e 34 45
e 34 47
e 34 48
e 34 62
e 34 77
e 34 82
e 34 84
e 34 90
e 34 113
e 34 116
e 34 149
e 34 161
e 34 171
e 34 176
e 34 177
e 34 189
e 34 192
e 35 41
e 35 42
e 35 50
e 35 68
e 35 69
e 35 72
e 35 88
e 35 94
e 35 98
e 35 100
e 35 119
e 35 134
e 35 143
e 35 158
e 35 164
e 35 167
e 35 174
e 35 197
e 36 38
e 36 78
e 36 85
e 36 86
e 36 87
e 36 88
e 36 96
e 36 105
e 36 123
e 36 126
e 36 131
e 36 153
e 36 162
e 36 164
e 36 171
e 36 175
e 36 191
e 37 40
e 37 42
e 37 51
e 37 65
e 37 79
e 37 81
e 37 83
e 37 84
e 37 97
e 37 99
e 37 101
e 37 115
e 37 121
e 37 147
e 37 161
e 37 166
e 37 179
e 37 196
e 38 42
e 38 47
e 38 50
e 38 65
e 38 70
e 38 79
e 38 90
e 38 97
e 38 99
e 38 100
e 38 102
e 38 118
e 38 127
e 38 131
e 38 144
e 38 148
e 38 153
e 38 158
e 38 163
e 38 164
e 38 174
e 38 177
e 39 52
e 39 55
e 39 61
e 39 62
e 39 69
e 39 73
e 39 79
e 39 82
e 39 89
e 39 96
e 39 98
e 39 112
e 39 123
e 39 126
e 39 137
e 39 150
e 39 158
e 39 164
e 39 167
e 39 188
e 39 192
e 40 47
e 40 48
e 40 50
e 40 51
e 40 52
e 40 81
e 40 97
e 40 110
e 40 123
e 40 127
e 40 129
e 40 134
e 40 157
e 40 177
e 40 194
e 41 45
e 41 59
e 41 66
e 41 79
e 41 81
e 41 83
e 41 90
e 41 115
e 41 149
e 41 159
e 41 174
e 41 175
e 41 183
e 41 187
e 42 43
e 42 53
e 42 59
e 42 64
e 42 68
e 42 70
e 42 74
e 42 82
e 42 83
e 42 91
e 42 95
e 42 109
e 42 125
e 42 133
e 42 135
e 42 140
e 42 149
e 42 150
e 42 179
e 42 199
e 43 49
e 43 51
e 43 54
e 43 78
e 43 88
e 43 98
e 43 115
e 43 117
e 43 118
e 43 120
e 43 128
e 43 131
e 43 135
e 43 144
e 43 148
e 43 153
e 43 160
e 43 167
e 43 170
e 43 175
e 43 189
e 44 76
e 44 82
e 44 96
e 44 98
e 44 102
e 44 110
e 44 136
e 44 149
e 44 157
e 44 173
e 44 179
e 44 181
e 44 183
e 44 200
e 45 55
e 45 72
e 45 82
e 45 84
e 45 87
e 45 101
e 45 130
e 45 145
e 45 148
e 45 156
e 45 157
e 45 160
e 45 161
e 45 166
e 45 169
e 45 177
e 45 182
e 45 185
e 45 190
e 46 50
e 46 69
e 46 78
e 46 87
e 46 90
e 46 92
e 46 102
e 46 140
e 46 148
e 46 150
e 46 158
e 46 160
e 46 165
e 46 180
e 46 183
e 46 189
e 46 191
e 46 200
e 47 51
e 47 86
e 47 93
e 47 97
e 47 98
e 47 102
e 47 118
e 47 127
e 47 130
e 47 160
e 47 163
e 47 165
e 47 176
e 48 83
e 48 85
e 48 86
e 48 90
e 48 93
e 48 101
e 48 112
e 48 148
e 48 152
e 48 154
e 48 163
e 48 176
e 48 179
e 48 184
e 48 187
e 48 189
e 48 198
e 49 56
e 49 94
e 49 96
e 49 101
e 49 127
e 49 133
e 49 135
e 49 140
e 49 148
e 49 153
e 49 177
e 49 192
e 49 193
e 50 61
e 50 83
e 50 93
e 50 96
e 50 97
e 50 99
e 50 100
e 50 109
e 50 115
e 50 119
e 50 121
e 50 124
e 50 126
e 50 129
e 50 130
e 50 132
e 50 140
e 50 143
e 50 152
e 50 162
e 50 169
e 50 170
e 50 178
e 50 180
e 50 184
e 50 189
e 50 192
e 50 197
e 51 52
e 51 56
e 51 57
e 51 77
e 51 83
e 51 89
e 51 118
e 51 146
e 51 147
e 51 149
e 51 165
e 51 174
e 51 175
e 51 185
e 51 195
e 51 196
e 52 68
e 52 70
e 52 79
e 52 86
e 52 92
e 52 93
e 52 97
e 52 121
e 52 143
e 52 147
e 52 150
e 52 158
e 52 169
e 52 182
e 52 183
e 52 188
e 53 69
e 53 77
e 53 85
e 53 98
e 53 103
e 53 111
e 53 114
e 53 128
e 53 141
e 53 146
e 53 172
e 53 180
e 53 184
e 53 199
e 54 55
e 54 61
e 54 64
e 54 76
e 54 78
e 54 85
e 54 98
e 54 102
e 54 108
e 54 117
e 54 138
e 54 144
e 54 146
e 54 151
e 54 155
e 54 175
e 54 191
e 54 199
e 55 60
e 55 67
e 55 73
e 55 74
e 55 85
e 55 87
e 55 93
e 55 105
e 55 107
e 55 124
e 55 127
e 55 130
e 55 148
e 55 150
e 55 163
e 55 173
e 55 185
e 55 187
e 55 191
e 55 193
e 56 68
e 56 73
e 56 77
e 56 78
e 56 82
e 56 90
e 56 97
e 56 100
e 56 126
e 56 138
e 56 140
e 56 142
e 56 167
e 56 184
e 56 185
e 56 187
e 56 190
e 56 199
e 57 60
e 57 69
e 57 89
e 57 90
e 57 108
e 57 111
e 57 114
e 57 118
e 57 138
e 57 148
e 57 155
e 57 161
e 57 162
e 57 167
e 57 172
e 57 175
e 57 186
e 57 192
e 58 87
e 58 91
e 58 92
e 58 93
e 58 104
e 58 122
e 58 139
e 58 148
e 58 156
e 58 161
e 58 182
e 58 192
e 59 61
e 59 73
e 59 75
e 59 94
e 59 117
e 59 123
e 59 129
e 59 130
e 59 145
e 59 149
e 59 154
e 59 172
e 59 173
e 59 175
e 59 177
e 59 182
e 60 61
e 60 63
e 60 78
e 60 81
e 60 92
e 60 124
e 60 128
e 60 133
e 60 144
e 60 147
e 60 149
e 60 153
e 60 167
e 60 181
e 60 184
e 60 190
e 60 192
e 61 77
e 61 79
e 61 84
e 61 86
e 61 91
e 61 94
e 61 106
e 61 149
e 61 162
e 61 166
e 62 66
e 62 67
e 62 70
e 62 87
e 62 91
e 62 107
e 62 111
e 62 129
e 62 137
e 62 154
e 62 167
e 62 185
e 62 186
e 62 189
e 63 64
e 63 73
e 63 76
e 63 98
e 63 110
e 63 146
e 63 163
e 63 164
e 63 173
e 63 175
e 63 186
e 63 192
e 63 196
e 64 70
e 64 72
e 64 77
e 64 90
e 64 91
e 64 107
e 64 123
e 64 131
e 64 142
e 64 163
e 64 165
e 64 195
e 65 69
e 65 76
e 65 88
e 65 98
e 65 123
e 65 132
e 65 145
e 65 156
e 65 161
e 65 184
e 65 189
e 65 197
e 66 72
e 66 79
e 66 83
e 66 85
e 66 89
e 66 91
e 66 99
e 66 112
e 66 115
e 66 116
e 66 125
e 66 129
e 66 130
e 66 132
e 66 134
e 66 144
e 66 168
e 66 177
e 66 185
e 66 189
e 67 68
e 67 73
e 67 76
e 67 77
e 67 148
e 67 165
e 67 172
e 67 173
e 67 188
e 67 196
e 68 71
e 68 90
e 68 91
e 68 92
e 68 100
e 68 108
e 68 110
e 68 113
e 68 114
e 68 117
e 68 138
e 68 144
e 68 157
e 68 159
e 68 163
e 68 170
e 68 187
e 68 195
e 69 77
e 69 82
e 69 108
e 69 139
e 69 140
e 69 141
e 69 146
e 69 160
e 69 161
e 69 162
e 69 186
e 69 197
e 70 76
e 70 79
e 70 80
e 70 94
e 70 104
e 70 114
e 70 123
e 70 125
e 70 141
e 70 143
e 70 155
e 70 160
e 70 192
e 70 197
e 71 89
e 71 93
e 71 102
e 71 104
e 71 108
e 71 116
e 71 154
e 71 158
e 71 164
e 71 170
e 71 180
e 71 193
e 72 74
e 72 82
e 72 88
e 72 96
e 72 105
e 72 119
e 72 121
e 72 130
e 72 146
e 72 157
e 72 160
e 72 162
e 72 176
e 72 178
e 72 186
e 72 195
e 72 199
e 73 74
e 73 78
e 73 91
e 73 113
e 73 116
e 73 127
e 73 131
e 73 133
e 73 135
e 73 145
e 73 150
e 73 165
e 74 76
e 74 80
e 74 109
e 74 110
e 74 121
e 74 123
e 74 134
e 74 140
e 74 149
e 74 157
e 74 164
e 74 167
e 74 170
e 74 177
e 74 193
e 75 97
e 75 122
e 75 128
e 75 144
e 75 153
e 75 160
e 75 168
e 75 170
e 75 174
e 75 178
e 75 194
e 75 199
e 76 93
e 76 95
e 76 104
e 76 107
e 76 110
e 76 138
e 76 142
e 76 145
e 76 159
e 76 168
e 76 190
e 76 195
e 76 199
e 77 80
e 77 84
e 77 93
e 77 95
e 77 99
e 77 101
e 77 111
e 77 117
e 77 119
e 77 125
e 77 128
e 77 135
e 77 140
e 77 141
e 77 150
e 77 152
e 77 157
e 77 160
e 77 168
e 77 183
e 78 80
e 78 107
e 78 113
e 78 123
e 78 125
e 78 132
e 78 135
e 78 136
e 78 169
e 78 173
e 78 176
e 78 177
e 78 180
e 78 187
e 78 188
e 78 195
e 79 80
e 79 84
e 79 89
e 79 98
e 79 99
e 79 112
e 79 113
e 79 119
e 79 120
e 79 130
e 79 134
e 79 140
e 79 142
e 79 168
e 79 177
e 79 183
e 79 195
e 80 87
e 80 92
e 80 95
e 80 97
e 80 118
e 80 121
e 80 131
e 80 132
e 80 134
e 80 151
e 80 160
e 80 161
e 80 176
e 80 177
e 80 189
e 80 191
e 80 193
e 80 195
e 80 196
e 80 199
e 81 92
e 81 99
e 81 101
e 81 109
e 81 113
e 81 148
e 81 151
e 81 153
e 81 163
e 81 175
e 81 198
e 82 85
e 82 88
e 82 91
e 82 93
e 82 115
e 82 138
e 82 141
e 82 142
e 82 155
e 83 108
e 83 111
e 83 123
e 83 139
e 83 158
e 83 168
e 83 169
e 83 173
e 83 175
e 83 183
e 83 190
e 83 197
e 84 97
e 84 110
e 84 112
e 84 125
e 84 133
e 84 151
e 84 161
e 84 173
e 84 196
e 85 90
e 85 98
e 85 116
e 85 151
e 85 154
e 85 173
e 85 187
e 85 192
e 85 196
e 86 106
e 86 115
e 86 116
e 86 134
e 86 135
e 86 137
e 86 151
e 86 156
e 86 161
e 86 162
e 86 174
e 86 187
e 86 192
e 87 90
e 87 112
e 87 118
e 87 121
e 87 131
e 87 141
e 87 143
e 87 152
e 87 159
e 87 168
e 87 183
e 87 185
e 87 199
e 87 200
e 88 100
e 88 113
e 88 129
e 88 143
e 88 158
e 88 170
e 88 179
e 88 184
e 89 96
e 89 110
e 89 117
e 89 122
e 89 124
e 89 139
e 89 143
e 89 158
e 89 166
e 89 171
e 89 172
e 89 181
e 89 187
e 89 195
e 90 92
e 90 94
e 90 111
e 90 117
e 90 120
e 90 123
e 90 130
e 90 143
e 90 144
e 90 145
e 90 146
e 90 153
e 90 159
e 90 172
e 91 96
e 91 100
e 91 109
e 91 110
e 91 111
e 91 114
e 91 119
e 91 129
e 91 133
e 91 149
e 91 151
e 91 155
e 91 163
e 91 170
e 91 173
e 91 174
e 91 185
e 91 187
e 91 195
e 92 103
e 92 113
e 92 119
e 92 121
e 92 127
e 92 142
e 92 147
e 92 155
e 92 157
e 92 158
e 92 162
e 92 164
e 92 173
e 92 189
e 92 196
e 93 101
e 93 111
e 93 112
e 93 129
e 93 140
e 93 141
e 93 145
e 93 148
e 93 152
e 93 156
e 93 161
e 93 162
e 93 163
e 93 173
e 93 178
e 93 189
e 93 198
e 94 107
e 94 111
e 94 138
e 94 150
e 94 158
e 94 172
e 94 175
e 94 193
e 95 105
e 95 111
e 95 136
e 95 138
e 95 142
e 95 143
e 95 176
e 95 178
e 95 182
e 95 194
e 95 199
e 96 100
e 96 126
e 96 131
e 96 140
e 96 148
e 96 149
e 96 155
e 96 157
e 96 172
e 96 188
e 96 193
e 97 104
e 97 119
e 97 136
e 97 137
e 97 142
e 97 144
e 97 160
e 97 163
e 97 166
e 97 174
e 97 181
e 98 103
e 98 108
e 98 111
e 98 124
e 98 131
e 98 132
e 98 133
e 98 135
e 98 157
e 98 158
e 98 166
e 98 189
e 99 116
e 99 119
e 99 120
e 99 127
e 99 130
e 99 136
e 99 144
e 99 145
e 99 150
e 99 152
e 99 153
e 99 160
e 99 185
e 99 191
e 100 122
e 100 131
e 100 147
e 100 150
e 100 153
e 100 155
e 100 164
e 100 179
e 100 187
e 100 195
e 101 117
e 101 130
e 101 150
e 101 168
e 101 172
e 101 185
e 101 187
e 102 103
e 102 104
e 102 117
e 102 121
e 102 146
e 102 149
e 102 167
e 102 170
e 102 191
e 102 195
e 102 197
e 102 200
e 103 105
e 103 111
e 103 115
e 103 131
e 103 134
e 103 142
e 103 153
e 103 169
e 103 178
e 103 182
e 103 188
e 103 192
e 103 194
e 103 195
e 104 107
e 104 114
e 104 115
e 104 125
e 104 129
e 104 135
e 104 136
e 104 146
e 104 148
e 104 165
e 104 167
e 104 171
e 104 175
e 104 181
e 104 182
e 105 140
e 105 150
e 105 158
e 105 167
e 105 170
e 105 175
e 105 191
e 106 113
e 106 115
e 106 116
e 106 122
e 106 125
e 106 127
e 106 136
e 106 145
e 106 168
e 106 174
e 106 193
e 106 197
e 107 127
e 107 128
e 107 146
e 107 151
e 107 172
e 107 178
e 108 134
e 108 165
e 108 166
e 108 168
e 108 169
e 108 179
e 109 118
e 109 119
e 109 128
e 109 130
e 109 133
e 109 137
e 109 140
e 109 156
e 109 179
e 109 182
e 109 196
e 110 117
e 110 132
e 110 133
e 110 134
e 110 157
e 110 162
e 110 164
e 110 176
e 110 188
e 110 197
e 111 128
e 111 132
e 111 138
e 111 143
e 111 158
e 111 161
e 111 165
e 111 172
e 111 184
e 111 199
e 112 124
e 112 143
e 112 144
e 112 150
e 112 155
e 112 164
e 112 182
e 112 186
e 112 192
e 112 195
e 112 196
e 112 197
e 112 198
e 113 115
e 113 117
e 113 119
e 113 131
e 113 132
e 113 135
e 113 137
e 113 143
e 113 157
e 113 165
e 113 169
e 113 176
e 113 190
e 113 194
e 113 195
e 114 117
e 114 122
e 114 142
e 114 147
e 114 157
e 114 196
e 114 197
e 115 125
e 115 133
e 115 142
e 115 151
e 115 156
e 115 163
e 115 181
e 115 188
e 115 189
e 115 190
e 115 193
e 116 122
e 116 141
e 116 143
e 116 145
e 116 174
e 116 194
e 117 119
e 117 121
e 117 125
e 117 130
e 117 159
e 117 160
e 117 166
e 117 172
e 117 173
e 117 175
e 117 185
e 118 123
e 118 125
e 118 146
e 118 147
e 118 153
e 118 158
e 118 167
e 118 175
e 118 178
e 118 182
e 118 186
e 119 124
e 119 127
e 119 130
e 119 140
e 119 145
e 119 157
e 119 176
e 119 183
e 119 193
e 119 195
e 120 121
e 120 128
e 120 133
e 120 134
e 120 139
e 120 142
e 120 148
e 120 171
e 121 123
e 121 138
e 121 146
e 121 148
e 121 171
e 121 178
e 121 185
e 121 190
e 121 196
e 122 138
e 122 139
e 122 141
e 122 153
e 122 177
e 123 155
e 123 168
e 123 174
e 123 178
e 124 133
e 124 138
e 124 145
e 124 148
e 124 153
e 124 160
e 124 162
e 124 171
e 124 180
e 124 191
e 124 197
e 124 200
e 125 131
e 125 137
e 125 138
e 125 140
e 125 158
e 125 162
e 125 182
e 126 142
e 126 149
e 126 151
e 126 152
e 126 170
e 126 177
e 126 196
e 126 197
e 127 139
e 127 144
e 127 194
e 127 199
e 128 132
e 128 139
e 128 151
e 128 154
e 128 157
e 128 166
e 128 170
e 128 180
e 128 192
e 128 196
e 129 144
e 129 145
e 129 161
e 129 170
e 129 197
e 129 199
e 130 132
e 130 136
e 130 144
e 130 149
e 130 151
e 130 152
e 130 160
e 130 164
e 130 167
e 130 172
e 130 175
e 130 180
e 130 182
e 131 154
e 131 158
e 131 199
e 132 148
e 132 156
e 132 157
e 132 170
e 132 171
e 132 174
e 132 176
e 132 186
e 133 140
e 133 141
e 133 148
e 133 155
e 133 162
e 133 169
e 133 170
e 133 174
e 133 184
e 134 143
e 134 165
e 134 167
e 134 184
e 134 189
e 134 190
e 134 197
e 135 140
e 135 143
e 135 173
e 135 180
e 136 140
e 136 144
e 136 146
e 136 158
e 136 163
e 136 177
e 136 187
e 136 195
e 136 196
e 137 147
e 137 158
e 137 176
e 137 178
e 137 196
e 137 198
e 138 147
e 138 149
e 138 151
e 138 153
e 138 154
e 138 177
e 138 194
e 138 195
e 139 170
e 139 173
e 139 177
e 139 178
e 139 179
e 139 183
e 139 191
e 139 195
e 140 149
e 140 152
e 140 165
e 140 167
e 141 146
e 141 167
e 141 187
e 141 189
e 141 191
e 141 197
e 142 150
e 142 151
e 142 157
e 142 158
e 142 162
e 142 169
e 142 184
e 143 159
e 143 172
e 143 180
e 143 184
e 143 191
e 143 197
e 144 151
e 144 153
e 144 169
e 144 176
e 145 152
e 145 154
e 145 179
e 145 184
e 146 154
e 146 157
e 146 163
e 146 182
e 146 184
e 146 186
e 146 190
e 147 149
e 147 153
e 147 158
e 147 167
e 147 170
e 147 181
e 147 185
e 147 192
e 148 190
e 148 191
e 148 199
e 149 155
e 149 158
e 149 159
e 149 164
e 149 173
e 149 175
e 149 191
e 149 198
e 150 154
e 150 155
e 150 171
e 150 173
e 150 174
e 150 178
e 150 183
e 150 187
e 150 192
e 150 193
e 151 158
e 151 163
e 151 175
e 151 176
e 151 178
e 151 179
e 151 181
e 151 185
e 151 196
e 152 156
e 152 182
e 153 155
e 153 181
e 153 189
e 153 198
e 154 156
e 154 167
e 154 169
e 154 173
e 155 157
e 155 167
e 155 168
e 155 184
e 155 189
e 155 195
e 156 175
e 156 176
e 156 185
e 157 169
e 157 189
e 157 195
e 158 165
e 158 172
e 158 192
e 158 196
e 159 160
e 159 167
e 159 182
e 159 193
e 159 198
e 159 199
e 160 166
e 160 177
e 160 189
e 161 162
e 161 176
e 161 178
e 161 183
e 162 173
e 162 193
e 162 194
e 162 197
e 163 171
e 163 189
e 163 193
e 164 174
e 164 182
e 164 196
e 164 199
e 165 176
e 165 178
e 165 183
e 165 193
e 166 170
e 166 181
e 166 191
e 166 195
e 167 169
e 167 171
e 167 173
e 167 194
e 167 197
e 168 170
e 168 179
e 168 182
e 168 199
e 169 175
e 169 177
e 169 191
e 169 200
e 170 173
e 170 186
e 170 191
e 170 198
e 170 200
e 171 178
e 171 180
e 171 197
e 171 199
e 172 186
e 172 190
e 173 179
e 173 189
e 173 195
e 173 198
e 174 184
e 174 188
e 174 190
e 174 194
e 175 182
e 175 194
e 176 177
e 176 178
e 176 200
e 177 178
e 177 190
e 177 191
e 177 194
e 177 198
e 179 194
e 179 196
e 179 198
e 180 192
e 180 196
e 180 197
e 181 188
e 181 191
e 181 195
e 181 197
e 181 199
e 182 184
e 182 187
e 182 196
e 183 188
e 183 190
e 183 198
e 184 191
e 184 200
e 185 190
e 186 191
e 186 197
e 187 188
e 187 189
e 187 196
e 188 190
e 188 199
e 189 190
e 189 200
e 191 195
e 192 196
e 192 197
e 193 199
e 193 200
e 196 197
